SDVRP instances/custom_instances/p03_28_splitx10_0.vrp
NAME:p03_28_splitx10_
BEST_KNOWN: 0
COMMENT: 0
DIMENSION: 469
CAPACITY: 2000
EDGE_WEIGHT_FORMAT: FUNCTION
EDGE_WEIGHT_TYPE: EXACT_2D
NODE_COORD_SECTION
1 0.00000 0.00000
2 -10 43
3 -10 43
4 -10 43
5 -10 43
6 -10 43
7 -31 -31
8 -31 -31
9 -31 -31
10 -31 -31
11 -31 -31
12 -31 -31
13 -31 -31
14 6 -31
15 6 -31
16 6 -31
17 6 -31
18 6 -31
19 49 14
20 49 14
21 49 14
22 49 14
23 49 14
24 49 14
25 49 14
26 21 46
27 21 46
28 21 46
29 21 46
30 -32 -21
31 -32 -21
32 -32 -21
33 -16 -16
34 -16 -16
35 -16 -16
36 20 35
37 20 35
38 20 35
39 20 35
40 20 35
41 20 35
42 20 35
43 -38 -10
44 -38 -10
45 -38 -10
46 -38 -10
47 -38 -10
48 1 34
49 1 34
50 1 34
51 1 34
52 1 34
53 -21 4
54 -21 4
55 -21 4
56 -21 4
57 -21 4
58 -21 4
59 -43 -45
60 -43 -45
61 -43 -45
62 -43 -45
63 -43 -45
64 -43 -45
65 -47 18
66 -47 18
67 -47 18
68 -47 18
69 -47 18
70 -47 18
71 3 45
72 3 45
73 3 45
74 3 45
75 3 45
76 -20 -14
77 -20 -14
78 -20 -14
79 19 -29
80 19 -29
81 41 -31
82 41 -31
83 41 -31
84 -34 -45
85 -34 -45
86 -34 -45
87 -34 -45
88 -34 -45
89 -34 -45
90 -16 45
91 -16 45
92 -16 45
93 -16 45
94 -16 45
95 -16 45
96 2 49
97 2 49
98 2 49
99 2 49
100 2 49
101 -1 -38
102 -1 -38
103 -1 -38
104 -3 37
105 -3 37
106 -3 37
107 -3 37
108 -25 -28
109 -25 -28
110 -25 -28
111 -25 -28
112 -25 -28
113 -25 -28
114 37 19
115 37 19
116 37 19
117 37 19
118 37 19
119 44 -28
120 44 -28
121 44 -28
122 44 -28
123 -50 -39
124 -50 -39
125 -50 -39
126 -50 -39
127 -6 -40
128 -6 -40
129 -6 -40
130 -6 -40
131 32 -2
132 32 -2
133 32 -2
134 32 -2
135 32 -2
136 32 -2
137 32 -2
138 -31 -2
139 -31 -2
140 -31 -2
141 -31 -2
142 -31 -2
143 -31 -2
144 -34 -49
145 -34 -49
146 -34 -49
147 -34 -49
148 -34 -49
149 27 -31
150 27 -31
151 27 -31
152 27 -31
153 15 34
154 15 34
155 15 34
156 15 34
157 15 34
158 15 34
159 15 34
160 -14 -11
161 -14 -11
162 -14 -11
163 21 -34
164 21 -34
165 21 -34
166 21 -34
167 21 -34
168 9 -43
169 9 -43
170 9 -43
171 9 -43
172 9 -43
173 9 -43
174 9 -43
175 24 18
176 24 18
177 15 -19
178 15 -19
179 15 -19
180 -42 -33
181 -42 -33
182 46 5
183 46 5
184 46 5
185 46 5
186 46 5
187 -23 35
188 -23 35
189 -23 35
190 -23 35
191 32 33
192 32 33
193 32 33
194 32 33
195 32 33
196 32 33
197 -14 -27
198 -14 -27
199 -14 -27
200 -14 -27
201 41 6
202 41 6
203 41 6
204 31 28
205 31 28
206 31 28
207 31 28
208 31 28
209 -17 37
210 -17 37
211 -17 37
212 -17 37
213 -6 -21
214 -6 -21
215 -6 -21
216 -6 -21
217 29 -32
218 29 -32
219 29 -32
220 -17 43
221 -17 43
222 -17 43
223 -17 43
224 -40 -16
225 -38 -39
226 -38 -39
227 -38 -39
228 -38 -39
229 -22 15
230 -22 15
231 -22 15
232 -22 15
233 -22 15
234 -14 33
235 -14 33
236 -14 33
237 -14 33
238 -14 33
239 -14 33
240 -14 33
241 3 30
242 3 30
243 3 30
244 3 30
245 3 30
246 3 30
247 -20 -15
248 -20 -15
249 -20 -15
250 -20 -15
251 -20 -15
252 -20 -15
253 -20 -15
254 -36 -14
255 -36 -14
256 -36 -14
257 -36 -14
258 -36 -14
259 0 4
260 0 4
261 0 4
262 0 4
263 0 4
264 0 4
265 0 4
266 -4 2
267 -4 2
268 -4 2
269 -4 2
270 -43 21
271 -43 21
272 -43 21
273 -43 21
274 -43 21
275 45 -43
276 45 -43
277 45 -43
278 45 -43
279 45 -43
280 45 -43
281 45 -43
282 -40 41
283 -40 41
284 -40 41
285 -40 41
286 -47 22
287 -47 22
288 -47 22
289 -47 22
290 -47 22
291 -47 22
292 -47 22
293 -47 22
294 28 30
295 28 30
296 28 30
297 33 -12
298 33 -12
299 33 -12
300 -11 -23
301 -11 -23
302 -11 -23
303 -11 -23
304 -39 -40
305 -39 -40
306 -39 -40
307 -39 -40
308 4 -26
309 4 -26
310 4 -26
311 -6 39
312 -6 39
313 -6 39
314 -44 19
315 -44 19
316 -28 12
317 -28 12
318 -28 12
319 -28 12
320 -28 12
321 44 41
322 44 41
323 44 41
324 16 31
325 16 31
326 16 31
327 16 31
328 16 31
329 -33 -49
330 -33 -49
331 -33 -49
332 -33 -49
333 -33 -49
334 -33 -49
335 27 2
336 27 2
337 27 2
338 27 2
339 27 2
340 27 2
341 16 -49
342 16 -49
343 36 -17
344 36 -17
345 36 -17
346 36 -17
347 36 -17
348 36 -17
349 36 -17
350 17 -50
351 17 -50
352 17 -50
353 17 -50
354 -26 -5
355 -26 -5
356 -26 -5
357 -26 -5
358 -38 46
359 -38 46
360 -38 46
361 13 -36
362 13 -36
363 13 -36
364 13 -36
365 -2 35
366 -2 35
367 -2 35
368 -2 35
369 -2 35
370 -2 35
371 -22 -23
372 -22 -23
373 -22 -23
374 -22 -23
375 -22 -23
376 -22 -23
377 -3 -18
378 -3 -18
379 -3 -18
380 -3 -18
381 -3 -18
382 -28 -3
383 -28 -3
384 -28 -3
385 -28 -3
386 -28 -3
387 -28 -3
388 -28 -3
389 23 -13
390 23 -13
391 23 -13
392 23 -13
393 23 -13
394 23 -13
395 23 -13
396 23 -13
397 -50 -39
398 -50 -39
399 -50 -39
400 -50 -39
401 49 -38
402 49 -38
403 49 -38
404 49 -38
405 49 -38
406 49 -38
407 -12 -24
408 -12 -24
409 -12 -24
410 -12 -24
411 -12 -24
412 -12 -24
413 -12 -24
414 -4 6
415 -4 6
416 -4 6
417 -4 6
418 -4 6
419 -6 -13
420 -6 -13
421 -6 -13
422 -6 -13
423 -6 -13
424 -6 -13
425 5 -39
426 5 -39
427 5 -39
428 49 34
429 49 34
430 49 34
431 -25 5
432 -25 5
433 -25 5
434 -25 5
435 22 -7
436 22 -7
437 22 -7
438 22 -7
439 -35 -43
440 -35 -43
441 -35 -43
442 -35 -43
443 12 -44
444 12 -44
445 12 -44
446 -33 34
447 -33 34
448 -33 34
449 -33 34
450 -46 29
451 -46 29
452 -46 29
453 -46 29
454 -46 29
455 41 17
456 41 17
457 41 17
458 41 17
459 41 17
460 41 17
461 -30 35
462 -30 35
463 -30 35
464 -30 35
465 -22 -27
466 -22 -27
467 -22 -27
468 -22 -27
469 -22 -27
DEMAND_SECTION
1 0
2 400
3 100
4 20
5 20
6 10
7 400
8 400
9 100
10 20
11 20
12 20
13 10
14 400
15 200
16 20
17 20
18 20
19 400
20 200
21 100
22 20
23 20
24 20
25 20
26 200
27 100
28 20
29 20
30 400
31 400
32 100
33 400
34 100
35 10
36 400
37 100
38 20
39 20
40 20
41 20
42 10
43 400
44 400
45 20
46 20
47 10
48 400
49 400
50 100
51 20
52 10
53 400
54 100
55 20
56 20
57 20
58 20
59 400
60 400
61 20
62 20
63 20
64 20
65 400
66 400
67 20
68 20
69 20
70 10
71 400
72 20
73 20
74 20
75 20
76 400
77 200
78 100
79 400
80 20
81 200
82 100
83 10
84 200
85 100
86 20
87 20
88 20
89 20
90 400
91 200
92 20
93 20
94 20
95 10
96 400
97 100
98 20
99 20
100 10
101 400
102 20
103 20
104 200
105 20
106 20
107 20
108 200
109 20
110 20
111 20
112 20
113 10
114 400
115 200
116 100
117 20
118 10
119 200
120 20
121 20
122 20
123 400
124 400
125 20
126 10
127 400
128 100
129 20
130 10
131 400
132 400
133 100
134 20
135 20
136 20
137 20
138 400
139 400
140 100
141 20
142 20
143 10
144 400
145 20
146 20
147 20
148 20
149 400
150 100
151 20
152 20
153 400
154 400
155 20
156 20
157 20
158 20
159 10
160 400
161 100
162 10
163 400
164 400
165 100
166 20
167 10
168 400
169 100
170 20
171 20
172 20
173 20
174 10
175 400
176 20
177 400
178 200
179 10
180 400
181 400
182 400
183 400
184 100
185 20
186 20
187 200
188 20
189 20
190 20
191 400
192 400
193 20
194 20
195 20
196 20
197 400
198 400
199 20
200 10
201 400
202 100
203 10
204 400
205 400
206 20
207 20
208 10
209 200
210 100
211 20
212 10
213 200
214 100
215 20
216 20
217 400
218 400
219 100
220 400
221 20
222 20
223 20
224 400
225 400
226 100
227 20
228 10
229 400
230 100
231 20
232 20
233 20
234 400
235 400
236 100
237 20
238 20
239 20
240 20
241 400
242 400
243 20
244 20
245 20
246 20
247 400
248 200
249 100
250 20
251 20
252 20
253 20
254 200
255 100
256 20
257 20
258 10
259 200
260 100
261 20
262 20
263 20
264 20
265 10
266 400
267 200
268 20
269 20
270 200
271 100
272 20
273 20
274 10
275 400
276 100
277 20
278 20
279 20
280 20
281 10
282 400
283 20
284 20
285 10
286 400
287 200
288 100
289 20
290 20
291 20
292 20
293 10
294 400
295 400
296 100
297 400
298 400
299 10
300 400
301 400
302 20
303 10
304 200
305 100
306 20
307 20
308 400
309 400
310 100
311 400
312 400
313 200
314 400
315 100
316 400
317 400
318 20
319 20
320 10
321 200
322 100
323 20
324 400
325 400
326 20
327 20
328 10
329 400
330 200
331 20
332 20
333 20
334 10
335 400
336 100
337 20
338 20
339 20
340 20
341 400
342 10
343 400
344 200
345 20
346 20
347 20
348 20
349 10
350 400
351 200
352 20
353 10
354 400
355 100
356 20
357 20
358 400
359 200
360 10
361 200
362 20
363 20
364 10
365 400
366 200
367 20
368 20
369 20
370 20
371 400
372 400
373 20
374 20
375 20
376 10
377 400
378 400
379 20
380 20
381 10
382 400
383 400
384 100
385 20
386 20
387 20
388 20
389 400
390 200
391 100
392 20
393 20
394 20
395 20
396 10
397 400
398 400
399 20
400 10
401 400
402 200
403 20
404 20
405 20
406 20
407 400
408 400
409 20
410 20
411 20
412 20
413 10
414 400
415 20
416 20
417 20
418 10
419 400
420 200
421 20
422 20
423 20
424 10
425 400
426 100
427 10
428 400
429 400
430 200
431 400
432 100
433 20
434 10
435 200
436 20
437 20
438 10
439 400
440 400
441 20
442 10
443 400
444 200
445 100
446 200
447 20
448 20
449 20
450 400
451 20
452 20
453 20
454 20
455 200
456 20
457 20
458 20
459 20
460 10
461 400
462 400
463 100
464 20
465 400
466 400
467 20
468 20
469 20
DEPOT_SECTION
1
-1
EOF