SDVRP instances/custom_instances/p03_28_splitx10_0.sol
468 -8 11 12 226 225 227 224 305 306 63 62 59 58 61 60 439 -10 9 304 303 399 125 123 124 398 396 122 397 -32 250 251 246 77 75 76 159 -33 34 108 112 110 109 111 107 6 7 179 180 -40 36 35 39 37 38 41 194 195 191 190 193 192 204 205 207 206 -43 45 46 44 42 137 142 140 138 141 139 56 55 53 -54 57 52 381 386 383 385 384 382 387 353 355 354 356 -74 72 71 73 70 98 99 97 96 95 105 103 106 104 369 364 366 365 367 368 -79 78 150 148 216 217 218 178 177 -82 81 80 120 121 118 119 402 403 401 400 404 405 275 279 280 274 276 277 278 149 151 -93 94 89 90 92 91 220 222 219 221 210 208 211 209 235 239 234 237 -113 116 114 117 115 454 456 458 455 459 457 18 19 20 21 24 23 22 337 336 338 335 -127 126 129 128 100 101 102 426 425 16 14 17 13 15 309 -157 154 158 156 152 153 155 326 324 325 323 327 -161 160 372 371 373 374 375 370 466 467 464 465 468 -165 162 164 166 163 350 351 349 352 340 341 -174 175 203 294 295 293 -176 392 389 390 134 136 135 132 131 133 130 434 435 437 436 -196 199 197 198 410 408 411 409 412 406 407 -201 202 200 182 184 181 185 183 334 339 -233 238 236 5 4 1 3 2 312 310 311 -240 245 242 244 243 241 47 49 48 51 50 262 260 261 -248 247 252 249 30 31 29 223 255 257 253 254 256 -264 258 259 263 27 25 26 28 320 322 321 428 429 427 -265 267 268 266 -269 272 273 314 313 68 65 66 64 67 69 316 -271 270 285 289 288 291 287 290 292 286 451 453 449 450 452 445 448 447 446 187 188 189 186 417 -282 284 281 283 359 358 357 462 463 461 460 -297 296 298 343 342 345 344 347 348 346 394 388 395 393 391 -299 301 302 300 212 213 215 214 307 308 -329 333 331 328 332 330 145 147 143 144 146 87 84 83 85 86 88 440 441 438 -360 362 363 361 443 442 444 172 167 171 168 169 173 170 424 -378 379 380 377 376 418 421 423 422 419 420 -414 416 415 413 229 231 228 232 230 319 318 317 315 431 430 432 433 0 





OBJ=
3083.552
BEST_KNOWN=
0.000